Route 1: 0 4 23 72 61 13 24 0
Route 2: 0 91 49 28 80 78 87 31 89 79 50 32 62 0
Route 3: 0 64 17 46 1 68 33 15 42 25 92 0
Route 4: 0 100 63 2 75 58 34 0
Route 5: 0 93 74 11 94 6 57 20 55 29 0
Route 6: 0 35 71 86 99 52 48 73 44 65 19 0
Route 7: 0 27 22 39 38 5 14 85 36 69 0
Route 8: 0 47 66 16 88 45 10 60 90 43 81 8 0
Route 9: 0 97 54 67 40 82 70 12 51 21 53 59 0
Route 10: 0 76 95 26 9 30 18 77 0
Route 11: 0 98 3 96 7 83 56 37 41 84 0
